%SETS
JOBS     = 1..10;
MACHINES = 1..25;
SPEED    = 5;

time        = array3d(JOBS,MACHINES,1..SPEED,[26, 9, 6, 5, 4, 4, 1, 1, 1, 1, 74, 25, 18, 15, 13, 19, 6, 4, 3, 3, 13, 4, 3, 2, 2, 7, 2, 1, 1, 1, 38, 13, 9, 7, 6, 15, 5, 3, 3, 2, 21, 7, 5, 4, 3, 1, 1, 1, 1, 1, 24, 8, 6, 5, 4, 24, 8, 6, 4, 4, 24, 8, 6, 5, 4, 74, 25, 18, 15, 13, 29, 10, 7, 6, 5, 11, 3, 2, 2, 2, 14, 5, 3, 3, 2, 30, 10, 7, 6, 5, 1, 1, 1, 1, 1, 28, 9, 6, 5, 5, 28, 9, 7, 5, 5, 6, 2, 1, 1, 1, 3, 1, 1, 1, 1, 9, 3, 2, 1, 1, 11, 4, 2, 2, 2, 21, 7, 5, 4, 3, 14, 5, 3, 3, 2, 115, 39, 28, 23, 20, 2, 1, 1, 1, 1, 6, 2, 1, 1, 1, 4, 1, 1, 1, 1, 27, 9, 6, 5, 4, 7, 2, 1, 1, 1, 16, 5, 3, 3, 2, 7, 2, 1, 1, 1, 4, 1, 1, 1, 1, 3, 1, 1, 1, 1, 27, 9, 6, 5, 4, 3, 1, 1, 1, 1, 5, 1, 1, 1, 1, 11, 4, 2, 2, 2, 44, 15, 10, 9, 8, 2, 1, 1, 1, 1, 47, 16, 11, 9, 8, 2, 1, 1, 1, 1, 97, 33, 23, 19, 17, 16, 5, 4, 3, 2, 97, 33, 23, 19, 17, 24, 8, 5, 4, 4, 34, 12, 8, 7, 6, 1, 1, 1, 1, 1, 8, 2, 2, 1, 1, 3, 1, 1, 1, 1, 9, 3, 2, 1, 1, 3, 1, 1, 1, 1, 9, 3, 2, 2, 1, 13, 4, 3, 2, 2, 1, 1, 1, 1, 1, 30, 10, 7, 6, 5, 21, 7, 5, 4, 3, 7, 2, 1, 1, 1, 19, 6, 4, 3, 3, 2, 1, 1, 1, 1, 22, 7, 5, 4, 3, 68, 23, 16, 13, 12, 9, 3, 2, 2, 1, 28, 9, 6, 5, 5, 3, 1, 1, 1, 1, 32, 11, 7, 6, 5, 8, 3, 2, 1, 1, 5, 1, 1, 1, 1, 22, 7, 5, 4, 4, 1, 1, 1, 1, 1, 45, 15, 11, 9, 8, 1, 1, 1, 1, 1, 29, 10, 7, 5, 5, 8, 2, 1, 1, 1, 34, 11, 8, 6, 6, 84, 29, 20, 17, 15, 7, 2, 1, 1, 1, 22, 7, 5, 4, 3, 23, 8, 5, 4, 4, 21, 7, 5, 4, 3, 6, 2, 1, 1, 1, 78, 27, 19, 16, 14, 15, 5, 3, 3, 2, 48, 16, 11, 9, 8, 31, 10, 7, 6, 5, 9, 3, 2, 1, 1, 43, 15, 10, 8, 7, 13, 4, 3, 2, 2, 55, 19, 13, 11, 9, 22, 7, 5, 4, 4, 55, 19, 13, 11, 9, 30, 10, 7, 6, 5, 33, 11, 8, 6, 6, 18, 6, 4, 3, 3, 80, 27, 19, 16, 14, 26, 9, 6, 5, 4, 14, 4, 3, 2, 2, 24, 8, 5, 4, 4, 1, 1, 1, 1, 1, 9, 3, 2, 1, 1, 27, 9, 6, 5, 5, 8, 3, 2, 1, 1, 24, 8, 6, 5, 4, 14, 5, 3, 2, 2, 3, 1, 1, 1, 1, 9, 3, 2, 1, 1, 21, 7, 5, 4, 3, 23, 7, 5, 4, 4, 22, 7, 5, 4, 3, 27, 9, 6, 5, 4, 27, 9, 6, 5, 4, 14, 5, 3, 2, 2, 58, 20, 14, 11, 10, 11, 4, 2, 2, 2, 14, 5, 3, 3, 2, 57, 19, 14, 11, 10, 42, 14, 10, 8, 7, 31, 10, 7, 6, 5, 2, 1, 1, 1, 1, 65, 22, 15, 13, 11, 32, 11, 7, 6, 5, 175, 60, 42, 35, 31, 4, 1, 1, 1, 1, 52, 18, 12, 10, 9, 4, 1, 1, 1, 1, 24, 8, 6, 5, 4, 3, 1, 1, 1, 1, 48, 16, 11, 9, 8, 42, 14, 10, 8, 7, 21, 7, 5, 4, 3, 13, 4, 3, 2, 2, 1, 1, 1, 1, 1, 30, 10, 7, 6, 5, 15, 5, 3, 3, 2, 33, 11, 8, 6, 5, 52, 17, 12, 10, 9, 96, 33, 23, 19, 17, 50, 17, 12, 10, 9, 1, 1, 1, 1, 1, 11, 3, 2, 2, 2, 33, 11, 8, 6, 6, 4, 1, 1, 1, 1, 19, 6, 4, 3, 3, 1, 1, 1, 1, 1, 5, 1, 1, 1, 1, 1, 1, 1, 1, 1, 40, 14, 10, 8, 7, 6, 2, 1, 1, 1, 10, 3, 2, 2, 1, 68, 23, 16, 13, 12, 31, 10, 7, 6, 5, 1, 1, 1, 1, 1, 4, 1, 1, 1, 1, 25, 8, 6, 5, 4, 22, 7, 5, 4, 4, 7, 2, 1, 1, 1, 70, 24, 17, 14, 12, 24, 8, 6, 5, 4, 19, 6, 4, 4, 3, 23, 7, 5, 4, 4, 33, 11, 8, 6, 6, 9, 3, 2, 1, 1, 13, 4, 3, 2, 2, 6, 2, 1, 1, 1, 5, 1, 1, 1, 1, 74, 25, 18, 15, 13, 34, 12, 8, 7, 6, 17, 6, 4, 3, 3, 6, 2, 1, 1, 1, 7, 2, 1, 1, 1, 1, 1, 1, 1, 1, 14, 5, 3, 2, 2, 9, 3, 2, 1, 1, 30, 10, 7, 6, 5, 12, 4, 3, 2, 2, 5, 1, 1, 1, 1, 1, 1, 1, 1, 1, 1, 1, 1, 1, 1, 29, 10, 7, 5, 5, 15, 5, 3, 3, 2, 19, 6, 4, 4, 3, 58, 20, 14, 11, 10, 120, 41, 29, 24, 21, 6, 2, 1, 1, 1, 28, 9, 6, 5, 5, 7, 2, 1, 1, 1, 1, 1, 1, 1, 1, 36, 12, 9, 7, 6, 9, 3, 2, 2, 1, 12, 4, 3, 2, 2, 22, 7, 5, 4, 4, 46, 15, 11, 9, 8, 25, 8, 6, 5, 4, 53, 18, 13, 10, 9, 8, 2, 2, 1, 1, 41, 14, 10, 8, 7, 5, 1, 1, 1, 1, 79, 27, 19, 16, 14, 30, 10, 7, 6, 5, 6, 2, 1, 1, 1, 76, 26, 18, 15, 13, 33, 11, 8, 6, 6, 7, 2, 1, 1, 1, 6, 2, 1, 1, 1, 18, 6, 4, 3, 3, 1, 1, 1, 1, 1, 6, 2, 1, 1, 1, 14, 4, 3, 2, 2, 12, 4, 2, 2, 2, 16, 5, 3, 3, 2, 8, 2, 2, 1, 1, 22, 7, 5, 4, 4, 51, 17, 12, 10, 9, 3, 1, 1, 1, 1, 18, 6, 4, 3, 3, 3, 1, 1, 1, 1, 32, 11, 7, 6, 5, 13, 4, 3, 2, 2, 21, 7, 5, 4, 3, 5, 1, 1, 1, 1, 4, 1, 1, 1, 1, 17, 5, 4, 3, 3, 11, 3, 2, 2, 2, 72, 25, 17, 14, 13, 37, 12, 9, 7, 6, 35, 12, 8, 7, 6, 60, 20, 14, 12, 10, 2, 1, 1, 1, 1, 20, 7, 5, 4, 3, 22, 7, 5, 4, 4, 84, 29, 20, 17, 15, 8, 3, 2, 1, 1, 7, 2, 1, 1, 1, 2, 1, 1, 1, 1, 1, 1, 1, 1, 1, 68, 23, 16, 13, 12, 28, 9, 7, 5, 5, 39, 13, 9, 8, 7, 8, 2, 2, 1, 1, 22, 7, 5, 4, 4, 1, 1, 1, 1, 1, 17, 5, 4, 3, 3, 98, 33, 24, 19, 17, 54, 18, 13, 11, 9, 10, 3, 2, 2, 1, 84, 29, 20, 17, 15, 6, 2, 1, 1, 1]);
energy      = array3d(JOBS,MACHINES,1..SPEED,[77, 91, 94, 95, 96, 96, 99, 99, 99, 99, 47, 77, 83, 86, 87, 82, 94, 96, 97, 97, 87, 96, 97, 98, 98, 93, 98, 99, 99, 99, 68, 87, 91, 93, 94, 86, 95, 97, 97, 98, 81, 93, 95, 96, 97, 99, 99, 99, 99, 99, 78, 92, 94, 95, 96, 78, 92, 94, 96, 96, 78, 92, 94, 95, 96, 47, 77, 83, 86, 87, 74, 90, 93, 94, 95, 89, 97, 98, 98, 98, 86, 95, 97, 97, 98, 74, 90, 93, 94, 95, 99, 99, 99, 99, 99, 75, 91, 94, 95, 95, 75, 91, 93, 95, 95, 94, 98, 99, 99, 99, 97, 99, 99, 99, 99, 91, 97, 98, 99, 99, 89, 96, 98, 98, 98, 81, 93, 95, 96, 97, 86, 95, 97, 97, 98, 31, 67, 75, 79, 81, 98, 99, 99, 99, 99, 94, 98, 99, 99, 99, 96, 99, 99, 99, 99, 76, 91, 94, 95, 96, 93, 98, 99, 99, 99, 85, 95, 97, 97, 98, 93, 98, 99, 99, 99, 96, 99, 99, 99, 99, 97, 99, 99, 99, 99, 76, 91, 94, 95, 96, 97, 99, 99, 99, 99, 95, 99, 99, 99, 99, 89, 96, 98, 98, 98, 64, 86, 90, 91, 92, 98, 99, 99, 99, 99, 62, 85, 89, 91, 92, 98, 99, 99, 99, 99, 37, 71, 79, 82, 84, 85, 95, 96, 97, 98, 37, 71, 79, 82, 84, 78, 92, 95, 96, 96, 71, 88, 92, 93, 94, 99, 99, 99, 99, 99, 92, 98, 98, 99, 99, 97, 99, 99, 99, 99, 91, 97, 98, 99, 99, 97, 99, 99, 99, 99, 91, 97, 98, 98, 99, 87, 96, 97, 98, 98, 99, 99, 99, 99, 99, 74, 90, 93, 94, 95, 81, 93, 95, 96, 97, 93, 98, 99, 99, 99, 82, 94, 96, 97, 97, 98, 99, 99, 99, 99, 80, 93, 95, 96, 97, 50, 79, 85, 87, 88, 91, 97, 98, 98, 99, 75, 91, 94, 95, 95, 97, 99, 99, 99, 99, 72, 89, 93, 94, 95, 92, 97, 98, 99, 99, 95, 99, 99, 99, 99, 80, 93, 95, 96, 96, 99, 99, 99, 99, 99, 63, 86, 89, 91, 92, 99, 99, 99, 99, 99, 74, 90, 93, 95, 95, 92, 98, 99, 99, 99, 71, 89, 92, 94, 94, 43, 74, 81, 84, 86, 93, 98, 99, 99, 99, 80, 93, 95, 96, 97, 79, 92, 95, 96, 96, 81, 93, 95, 96, 97, 94, 98, 99, 99, 99, 45, 76, 82, 85, 86, 86, 95, 97, 97, 98, 61, 85, 89, 91, 92, 73, 90, 93, 94, 95, 91, 97, 98, 99, 99, 65, 86, 90, 92, 93, 87, 96, 97, 98, 98, 57, 82, 87, 89, 91, 80, 93, 95, 96, 96, 57, 82, 87, 89, 91, 74, 90, 93, 94, 95, 71, 89, 92, 94, 94, 83, 94, 96, 97, 97, 44, 76, 82, 85, 86, 77, 91, 94, 95, 96, 86, 96, 97, 98, 98, 78, 92, 95, 96, 96, 99, 99, 99, 99, 99, 91, 97, 98, 99, 99, 76, 91, 94, 95, 95, 92, 97, 98, 99, 99, 78, 92, 94, 95, 96, 86, 95, 97, 98, 98, 97, 99, 99, 99, 99, 91, 97, 98, 99, 99, 81, 93, 95, 96, 97, 79, 93, 95, 96, 96, 80, 93, 95, 96, 97, 76, 91, 94, 95, 96, 76, 91, 94, 95, 96, 86, 95, 97, 98, 98, 55, 81, 86, 89, 90, 89, 96, 98, 98, 98, 86, 95, 97, 97, 98, 56, 82, 86, 89, 90, 65, 86, 90, 92, 93, 73, 90, 93, 94, 95, 98, 99, 99, 99, 99, 52, 80, 86, 87, 89, 72, 89, 93, 94, 95, 17, 54, 65, 70, 73, 96, 99, 99, 99, 99, 59, 83, 88, 90, 91, 96, 99, 99, 99, 99, 78, 92, 94, 95, 96, 97, 99, 99, 99, 99, 61, 85, 89, 91, 92, 65, 86, 90, 92, 93, 81, 93, 95, 96, 97, 87, 96, 97, 98, 98, 99, 99, 99, 99, 99, 74, 90, 93, 94, 95, 86, 95, 97, 97, 98, 71, 89, 92, 94, 95, 59, 84, 88, 90, 91, 38, 71, 79, 82, 84, 60, 84, 88, 90, 91, 99, 99, 99, 99, 99, 89, 97, 98, 98, 98, 71, 89, 92, 94, 94, 96, 99, 99, 99, 99, 82, 94, 96, 97, 97, 99, 99, 99, 99, 99, 95, 99, 99, 99, 99, 99, 99, 99, 99, 99, 67, 86, 90, 92, 93, 94, 98, 99, 99, 99, 90, 97, 98, 98, 99, 50, 79, 85, 87, 88, 73, 90, 93, 94, 95, 99, 99, 99, 99, 99, 96, 99, 99, 99, 99, 77, 92, 94, 95, 96, 80, 93, 95, 96, 96, 93, 98, 99, 99, 99, 49, 78, 84, 86, 88, 78, 92, 94, 95, 96, 82, 94, 96, 96, 97, 79, 93, 95, 96, 96, 71, 89, 92, 94, 94, 91, 97, 98, 99, 99, 87, 96, 97, 98, 98, 94, 98, 99, 99, 99, 95, 99, 99, 99, 99, 47, 77, 83, 86, 87, 71, 88, 92, 93, 94, 84, 94, 96, 97, 97, 94, 98, 99, 99, 99, 93, 98, 99, 99, 99, 99, 99, 99, 99, 99, 86, 95, 97, 98, 98, 91, 97, 98, 99, 99, 74, 90, 93, 94, 95, 88, 96, 97, 98, 98, 95, 99, 99, 99, 99, 99, 99, 99, 99, 99, 99, 99, 99, 99, 99, 74, 90, 93, 95, 95, 86, 95, 97, 97, 98, 82, 94, 96, 96, 97, 55, 81, 86, 89, 90, 30, 66, 74, 78, 81, 94, 98, 99, 99, 99, 75, 91, 94, 95, 95, 93, 98, 99, 99, 99, 99, 99, 99, 99, 99, 69, 88, 91, 93, 94, 91, 97, 98, 98, 99, 88, 96, 97, 98, 98, 80, 93, 95, 96, 96, 63, 86, 89, 91, 92, 77, 92, 94, 95, 96, 58, 83, 87, 90, 91, 92, 98, 98, 99, 99, 66, 86, 90, 92, 93, 95, 99, 99, 99, 99, 45, 76, 82, 85, 86, 74, 90, 93, 94, 95, 94, 98, 99, 99, 99, 46, 77, 83, 86, 87, 71, 89, 92, 94, 94, 93, 98, 99, 99, 99, 94, 98, 99, 99, 99, 83, 94, 96, 97, 97, 99, 99, 99, 99, 99, 94, 98, 99, 99, 99, 86, 96, 97, 98, 98, 88, 96, 98, 98, 98, 85, 95, 97, 97, 98, 92, 98, 98, 99, 99, 80, 93, 95, 96, 96, 60, 84, 88, 90, 91, 97, 99, 99, 99, 99, 83, 94, 96, 97, 97, 97, 99, 99, 99, 99, 72, 89, 93, 94, 95, 87, 96, 97, 98, 98, 81, 93, 95, 96, 97, 95, 99, 99, 99, 99, 96, 99, 99, 99, 99, 84, 95, 96, 97, 97, 89, 97, 98, 98, 98, 48, 77, 84, 86, 87, 69, 88, 91, 93, 94, 70, 88, 92, 93, 94, 54, 81, 86, 88, 90, 98, 99, 99, 99, 99, 81, 93, 95, 96, 97, 80, 93, 95, 96, 96, 43, 74, 81, 84, 86, 92, 97, 98, 99, 99, 93, 98, 99, 99, 99, 98, 99, 99, 99, 99, 99, 99, 99, 99, 99, 50, 79, 85, 87, 88, 75, 91, 93, 95, 95, 67, 87, 91, 92, 93, 92, 98, 98, 99, 99, 80, 93, 95, 96, 96, 99, 99, 99, 99, 99, 84, 95, 96, 97, 97, 37, 71, 78, 82, 84, 58, 83, 87, 89, 91, 90, 97, 98, 98, 99, 43, 74, 81, 84, 86, 94, 98, 99, 99, 99]);
precedence  = array2d(JOBS,MACHINES,[14, 22, 5, 13, 11, 24, 15, 19, 12, 18, 4, 9, 1, 6, 7, 2, 0, 17, 16, 21, 3, 20, 10, 23, 8, 6, 19, 2, 15, 9, 20, 10, 18, 17, 21, 0, 13, 12, 23, 5, 11, 8, 4, 16, 22, 14, 3, 1, 7, 24, 14, 4, 22, 21, 2, 5, 16, 8, 10, 20, 11, 6, 19, 24, 15, 18, 7, 3, 9, 12, 0, 1, 17, 13, 23, 6, 10, 21, 9, 15, 19, 24, 2, 1, 16, 5, 11, 3, 17, 4, 0, 8, 13, 12, 23, 14, 7, 20, 18, 22, 14, 19, 13, 12, 8, 1, 15, 24, 4, 10, 3, 22, 17, 9, 21, 6, 20, 18, 0, 7, 5, 23, 2, 16, 11, 21, 24, 11, 19, 3, 23, 8, 22, 17, 5, 15, 14, 13, 0, 6, 9, 1, 12, 18, 10, 2, 7, 16, 4, 20, 14, 8, 2, 1, 15, 11, 16, 7, 13, 17, 12, 10, 24, 19, 6, 23, 5, 4, 20, 0, 9, 21, 18, 3, 22, 10, 21, 12, 1, 20, 4, 23, 17, 6, 5, 0, 7, 9, 14, 22, 24, 19, 15, 3, 11, 18, 2, 16, 13, 8, 16, 24, 0, 20, 1, 22, 10, 19, 17, 12, 13, 7, 11, 4, 23, 8, 21, 9, 5, 15, 2, 3, 14, 6, 18, 3, 9, 15, 23, 19, 14, 17, 1, 5, 10, 12, 21, 11, 22, 8, 16, 2, 18, 4, 24, 6, 7, 20, 0, 13]);
releaseDate = array2d(JOBS,MACHINES,[170, 219, 89, 166, 157, 222, 182, 206, 160, 205, 82, 148, 64, 111, 132, 71, 60, 193, 192, 212, 74, 211, 155, 220, 144, 160, 262, 94, 246, 187, 266, 189, 261, 258, 267, 70, 205, 199, 269, 158, 197, 174, 157, 247, 268, 206, 153, 71, 168, 270, 104, 44, 141, 139, 40, 46, 124, 68, 79, 132, 90, 48, 131, 143, 105, 129, 54, 41, 70, 91, 30, 31, 128, 93, 142, 68, 129, 252, 102, 178, 224, 294, 37, 34, 179, 65, 130, 42, 214, 54, 30, 82, 160, 145, 275, 168, 78, 229, 218, 266, 170, 203, 167, 161, 102, 18, 178, 219, 62, 111, 56, 213, 192, 104, 206, 74, 204, 199, 0, 89, 65, 218, 25, 182, 116, 236, 258, 176, 218, 91, 247, 144, 237, 205, 93, 195, 192, 180, 60, 95, 159, 85, 177, 209, 175, 86, 143, 204, 92, 226, 128, 100, 67, 58, 130, 113, 131, 93, 127, 144, 115, 109, 225, 178, 91, 218, 90, 89, 196, 50, 104, 214, 176, 88, 215, 184, 252, 211, 127, 251, 148, 261, 235, 170, 149, 80, 174, 177, 226, 260, 271, 249, 227, 143, 186, 241, 128, 233, 214, 176, 98, 190, 30, 126, 32, 183, 81, 122, 117, 85, 86, 54, 82, 48, 184, 56, 181, 73, 50, 91, 40, 43, 89, 52, 118, 37, 117, 143, 232, 194, 142, 179, 29, 41, 137, 140, 210, 139, 211, 109, 156, 34, 184, 40, 241, 68, 93, 208, 0, 141]);
dueDate     = array2d(JOBS,MACHINES,[182, 220, 111, 170, 160, 223, 192, 211, 166, 206, 89, 155, 71, 132, 144, 74, 64, 205, 193, 219, 82, 212, 157, 222, 148, 168, 266, 153, 247, 189, 267, 197, 262, 261, 268, 71, 206, 205, 270, 160, 199, 187, 158, 258, 269, 246, 157, 94, 174, 281, 105, 46, 142, 141, 41, 48, 128, 70, 90, 139, 91, 54, 132, 148, 124, 131, 68, 44, 79, 93, 31, 40, 129, 104, 143, 78, 130, 266, 129, 179, 229, 304, 42, 37, 214, 68, 145, 54, 218, 65, 34, 102, 168, 160, 294, 178, 82, 252, 224, 275, 178, 204, 170, 167, 104, 25, 182, 221, 65, 116, 62, 218, 199, 111, 213, 89, 206, 203, 18, 102, 74, 219, 56, 192, 161, 237, 290, 177, 226, 92, 258, 159, 247, 209, 95, 204, 195, 192, 85, 143, 175, 86, 180, 218, 176, 91, 144, 205, 93, 236, 130, 104, 88, 67, 131, 115, 144, 100, 128, 176, 127, 113, 230, 196, 93, 225, 91, 90, 214, 58, 109, 215, 178, 89, 218, 186, 260, 214, 128, 252, 149, 271, 241, 174, 170, 127, 176, 184, 227, 261, 287, 251, 233, 148, 211, 249, 143, 235, 226, 177, 117, 199, 32, 181, 40, 184, 82, 126, 118, 86, 89, 56, 85, 50, 190, 73, 183, 81, 52, 98, 43, 48, 91, 54, 122, 40, 137, 156, 241, 208, 143, 184, 34, 68, 139, 141, 211, 140, 232, 117, 179, 37, 194, 41, 245, 93, 109, 210, 29, 142]);